lpmln2cl
Clingo executed with command:
clingo /home/apradhan/proj/fact_check_kb/out.txt dataset/team/evidence/local/rudik/topset_conf_const_1k/19_unique.txt 
clingo version 4.5.4
Reading from ...me/apradhan/proj/fact_check_kb/out.txt ...
Solving...
UNSATISFIABLE

Models       : 0     
Calls        : 1
Time         : 0.063s (Solving: 0.00s 1st Model: 0.00s Unsat: 0.00s)
CPU Time     : 0.060s
